flay05m.py
Ipopt 3.12: 
==> Warning: Treating 40 binary and 0 integer variables as continous.


******************************************************************************
This program contains Ipopt, a library for large-scale nonlinear optimization.
 Ipopt is released as open source code under the Eclipse Public License (EPL).
         For more information visit http://projects.coin-or.org/Ipopt
******************************************************************************

This is Ipopt version 3.12, running with linear solver ma27.

Number of nonzeros in equality constraint Jacobian...:       40
Number of nonzeros in inequality constraint Jacobian.:      200
Number of nonzeros in Lagrangian Hessian.............:        5

Total number of variables............................:       62
                     variables with only lower bounds:        0
                variables with lower and upper bounds:       62
                     variables with only upper bounds:        0
Total number of equality constraints.................:       10
Total number of inequality constraints...............:       55
        inequality constraints with only lower bounds:       10
   inequality constraints with lower and upper bounds:        0
        inequality constraints with only upper bounds:       45

iter    objective    inf_pr   inf_du lg(mu)  ||d||  lg(rg) alpha_du alpha_pr  ls
   0  3.9999960e-02 7.32e+01 1.42e+00  -1.0 0.00e+00    -  0.00e+00 0.00e+00   0
   1  2.7379824e-01 6.99e+01 6.31e+00  -1.0 2.40e+01    -  6.55e-03 4.74e-02f  1
   2  7.0137385e+00 3.46e+01 2.14e+01  -1.0 2.25e+01    -  4.85e-02 1.00e+00f  1
   3  1.1708817e+01 1.69e+01 4.90e+00  -1.0 2.12e+00    -  4.85e-01 1.00e+00h  1
   4  2.0636553e+01 7.41e+00 1.64e+00  -1.0 3.62e+00    -  2.28e-01 1.00e+00h  1
   5  2.5761847e+01 4.47e+00 1.13e+00  -1.0 4.77e+00    -  2.22e-01 4.10e-01h  1
   6  3.5147965e+01 0.00e+00 6.39e-01  -1.0 4.12e+00    -  5.95e-01 1.00e+00h  1
   7  3.5277523e+01 2.22e-16 9.58e-02  -1.0 9.58e-02   0.0 1.00e+00 1.00e+00h  1
   8  3.4658121e+01 1.16e-03 8.21e-02  -2.5 5.06e-01    -  9.82e-01 7.92e-01f  1
   9  3.4649675e+01 1.40e-03 4.80e-03  -2.5 1.90e+00    -  1.00e+00 1.00e+00h  1
iter    objective    inf_pr   inf_du lg(mu)  ||d||  lg(rg) alpha_du alpha_pr  ls
  10  3.4641651e+01 2.22e-16 1.23e-05  -3.8 8.09e-02    -  1.00e+00 1.00e+00h  1
  11  3.4641025e+01 2.22e-16 1.77e-07  -5.7 1.58e-02    -  1.00e+00 1.00e+00h  1
  12  3.4641016e+01 0.00e+00 2.37e-10  -8.6 1.74e-03    -  1.00e+00 1.00e+00h  1

Number of Iterations....: 12

                                   (scaled)                 (unscaled)
Objective...............:   3.4641016063853520e+01    3.4641016063853520e+01
Dual infeasibility......:   2.3717431654977645e-10    2.3717431654977645e-10
Constraint violation....:   0.0000000000000000e+00    0.0000000000000000e+00
Complementarity.........:   3.5616824666399602e-09    3.5616824666399602e-09
Overall NLP error.......:   3.5616824666399602e-09    3.5616824666399602e-09


Number of objective function evaluations             = 13
Number of objective gradient evaluations             = 13
Number of equality constraint evaluations            = 13
Number of inequality constraint evaluations          = 13
Number of equality constraint Jacobian evaluations   = 13
Number of inequality constraint Jacobian evaluations = 13
Number of Lagrangian Hessian evaluations             = 12
Total CPU secs in IPOPT (w/o function evaluations)   =      0.006
Total CPU secs in NLP function evaluations           =      0.000

EXIT: Optimal Solution Found.

Time elapsed: 0.11983060836791992